/* Objective function */
max: ;

/* Constraints */
R1: +x4 <= 0;
R2: +x5 <= 0;
R3: +x1 <= 0;
R4: +x2 <= 0;
R5: +x2 <= 0;
R6: +x6 <= 0;
+x7 +x9 <= 0;
0 x1 <= 0;
R9: +x8 <= 0;
0 x1 <= 1;
R11: +x1 <= 0;
R12: +x3 <= 0;
R13: +x3 <= 0;
R14: +x4 >= 0;
R15: +x5 >= 0;
R16: +x1 >= 0;
R17: +x1 >= 0;
R18: +x2 >= 0;
R19: +x3 >= 0;
R20: +x8 >= 1;
R21: +x7 >= 0;
R22: +x9 >= 0;
R23: +x5 >= 0;
R24: +x6 >= 0;
R25: +x6 >= 0;
R26: +x1 >= 0;
R27: +x2 >= 0;
R28: +x3 >= 0;
R29: +x4 >= 0;
R30: +x5 >= 0;
R31: +x6 >= 0;
R32: +x7 >= 0;
R33: +x8 >= 0;
R34: +x9 >= 0;
